experimental-results/original-data/fig4/urquhart-simon-04-02.cnf
c Random Instance of Urquhart's Problem for SAT (size=4 randomSeed=2).
c Like Hole, this problem as been proved to be exponential for resolution.
c N.B. : instance is unsatisfiable by construction.
c 
c Come from the paper 'Hard Examples for Resolution'.
c        Source : Laurent Simon, simon@lri.fr. May 1999.
c 
c n=4, so there is m^2=16 vertices in each part of the bipartite graph. 
c Bases creations : 
c   - a '1' charge is 'there must be an even number of negated vars'
c   - edges contains variables from which all subbases are constructed.
c vertex A0 :(charge=0), (edges=[76,58])
c vertex A1 :(charge=1), (edges=[44,58,74])
c vertex A2 :(charge=0), (edges=[60,25,71,68,19,74,7])
c vertex A3 :(charge=1), (edges=[39,2,7,54])
c vertex A4 :(charge=1), (edges=[77,8,9,47,54,14])
c vertex A5 :(charge=0), (edges=[72,18,35,14,32])
c vertex A6 :(charge=0), (edges=[4,28,32,16])
c vertex A7 :(charge=1), (edges=[24,46,70,16,64])
c vertex A8 :(charge=1), (edges=[73,64,31])
c vertex A9 :(charge=1), (edges=[30,48,62,31,17])
c vertex A10 :(charge=0), (edges=[29,17,50])
c vertex A11 :(charge=1), (edges=[5,40,65,57,36,50,56])
c vertex A12 :(charge=1), (edges=[42,75,59,15,10,56,43])
c vertex A13 :(charge=1), (edges=[63,61,37,67,69,43,13])
c vertex A14 :(charge=1), (edges=[11,6,13,20])
c vertex A15 :(charge=1), (edges=[26,3,52,33,20])
c vertex B0 :(charge=0), (edges=[73,19,28,46,21])
c vertex B1 :(charge=1), (edges=[11,75,21,27])
c vertex B2 :(charge=1), (edges=[77,70,40,59,61,27,22])
c vertex B3 :(charge=0), (edges=[30,47,15,22,38])
c vertex B4 :(charge=0), (edges=[72,38,66])
c vertex B5 :(charge=0), (edges=[24,25,2,36,66,55])
c vertex B6 :(charge=1), (edges=[5,68,55,34])
c vertex B7 :(charge=1), (edges=[76,71,37,34,23])
c vertex B8 :(charge=1), (edges=[42,52,23,45])
c vertex B9 :(charge=1), (edges=[26,35,10,6,45,49])
c vertex B10 :(charge=0), (edges=[63,65,33,49,41])
c vertex B11 :(charge=0), (edges=[44,41,53])
c vertex B12 :(charge=0), (edges=[39,8,67,53,12])
c vertex B13 :(charge=1), (edges=[60,9,57,69,3,12,1])
c vertex B14 :(charge=1), (edges=[4,62,1,51])
c vertex B15 :(charge=0), (edges=[29,18,48,51])
c 
p cnf 77 710
76 -58 0
-76 58 0
44 58 74 0
44 -58 -74 0
-44 58 -74 0
-44 -58 74 0
60 25 71 68 19 74 -7 0
60 25 71 68 19 -74 7 0
60 25 71 68 -19 74 7 0
60 25 71 68 -19 -74 -7 0
60 25 71 -68 19 74 7 0
60 25 71 -68 19 -74 -7 0
60 25 71 -68 -19 74 -7 0
60 25 71 -68 -19 -74 7 0
60 25 -71 68 19 74 7 0
60 25 -71 68 19 -74 -7 0
60 25 -71 68 -19 74 -7 0
60 25 -71 68 -19 -74 7 0
60 25 -71 -68 19 74 -7 0
60 25 -71 -68 19 -74 7 0
60 25 -71 -68 -19 74 7 0
60 25 -71 -68 -19 -74 -7 0
60 -25 71 68 19 74 7 0
60 -25 71 68 19 -74 -7 0
60 -25 71 68 -19 74 -7 0
60 -25 71 68 -19 -74 7 0
60 -25 71 -68 19 74 -7 0
60 -25 71 -68 19 -74 7 0
60 -25 71 -68 -19 74 7 0
60 -25 71 -68 -19 -74 -7 0
60 -25 -71 68 19 74 -7 0
60 -25 -71 68 19 -74 7 0
60 -25 -71 68 -19 74 7 0
60 -25 -71 68 -19 -74 -7 0
60 -25 -71 -68 19 74 7 0
60 -25 -71 -68 19 -74 -7 0
60 -25 -71 -68 -19 74 -7 0
60 -25 -71 -68 -19 -74 7 0
-60 25 71 68 19 74 7 0
-60 25 71 68 19 -74 -7 0
-60 25 71 68 -19 74 -7 0
-60 25 71 68 -19 -74 7 0
-60 25 71 -68 19 74 -7 0
-60 25 71 -68 19 -74 7 0
-60 25 71 -68 -19 74 7 0
-60 25 71 -68 -19 -74 -7 0
-60 25 -71 68 19 74 -7 0
-60 25 -71 68 19 -74 7 0
-60 25 -71 68 -19 74 7 0
-60 25 -71 68 -19 -74 -7 0
-60 25 -71 -68 19 74 7 0
-60 25 -71 -68 19 -74 -7 0
-60 25 -71 -68 -19 74 -7 0
-60 25 -71 -68 -19 -74 7 0
-60 -25 71 68 19 74 -7 0
-60 -25 71 68 19 -74 7 0
-60 -25 71 68 -19 74 7 0
-60 -25 71 68 -19 -74 -7 0
-60 -25 71 -68 19 74 7 0
-60 -25 71 -68 19 -74 -7 0
-60 -25 71 -68 -19 74 -7 0
-60 -25 71 -68 -19 -74 7 0
-60 -25 -71 68 19 74 7 0
-60 -25 -71 68 19 -74 -7 0
-60 -25 -71 68 -19 74 -7 0
-60 -25 -71 68 -19 -74 7 0
-60 -25 -71 -68 19 74 -7 0
-60 -25 -71 -68 19 -74 7 0
-60 -25 -71 -68 -19 74 7 0
-60 -25 -71 -68 -19 -74 -7 0
39 2 7 54 0
39 2 -7 -54 0
39 -2 7 -54 0
39 -2 -7 54 0
-39 2 7 -54 0
-39 2 -7 54 0
-39 -2 7 54 0
-39 -2 -7 -54 0
77 8 9 47 54 14 0
77 8 9 47 -54 -14 0
77 8 9 -47 54 -14 0
77 8 9 -47 -54 14 0
77 8 -9 47 54 -14 0
77 8 -9 47 -54 14 0
77 8 -9 -47 54 14 0
77 8 -9 -47 -54 -14 0
77 -8 9 47 54 -14 0
77 -8 9 47 -54 14 0
77 -8 9 -47 54 14 0
77 -8 9 -47 -54 -14 0
77 -8 -9 47 54 14 0
77 -8 -9 47 -54 -14 0
77 -8 -9 -47 54 -14 0
77 -8 -9 -47 -54 14 0
-77 8 9 47 54 -14 0
-77 8 9 47 -54 14 0
-77 8 9 -47 54 14 0
-77 8 9 -47 -54 -14 0
-77 8 -9 47 54 14 0
-77 8 -9 47 -54 -14 0
-77 8 -9 -47 54 -14 0
-77 8 -9 -47 -54 14 0
-77 -8 9 47 54 14 0
-77 -8 9 47 -54 -14 0
-77 -8 9 -47 54 -14 0
-77 -8 9 -47 -54 14 0
-77 -8 -9 47 54 -14 0
-77 -8 -9 47 -54 14 0
-77 -8 -9 -47 54 14 0
-77 -8 -9 -47 -54 -14 0
72 18 35 14 -32 0
72 18 35 -14 32 0
72 18 -35 14 32 0
72 18 -35 -14 -32 0
72 -18 35 14 32 0
72 -18 35 -14 -32 0
72 -18 -35 14 -32 0
72 -18 -35 -14 32 0
-72 18 35 14 32 0
-72 18 35 -14 -32 0
-72 18 -35 14 -32 0
-72 18 -35 -14 32 0
-72 -18 35 14 -32 0
-72 -18 35 -14 32 0
-72 -18 -35 14 32 0
-72 -18 -35 -14 -32 0
4 28 32 -16 0
4 28 -32 16 0
4 -28 32 16 0
4 -28 -32 -16 0
-4 28 32 16 0
-4 28 -32 -16 0
-4 -28 32 -16 0
-4 -28 -32 16 0
24 46 70 16 64 0
24 46 70 -16 -64 0
24 46 -70 16 -64 0
24 46 -70 -16 64 0
24 -46 70 16 -64 0
24 -46 70 -16 64 0
24 -46 -70 16 64 0
24 -46 -70 -16 -64 0
-24 46 70 16 -64 0
-24 46 70 -16 64 0
-24 46 -70 16 64 0
-24 46 -70 -16 -64 0
-24 -46 70 16 64 0
-24 -46 70 -16 -64 0
-24 -46 -70 16 -64 0
-24 -46 -70 -16 64 0
73 64 31 0
73 -64 -31 0
-73 64 -31 0
-73 -64 31 0
30 48 62 31 17 0
30 48 62 -31 -17 0
30 48 -62 31 -17 0
30 48 -62 -31 17 0
30 -48 62 31 -17 0
30 -48 62 -31 17 0
30 -48 -62 31 17 0
30 -48 -62 -31 -17 0
-30 48 62 31 -17 0
-30 48 62 -31 17 0
-30 48 -62 31 17 0
-30 48 -62 -31 -17 0
-30 -48 62 31 17 0
-30 -48 62 -31 -17 0
-30 -48 -62 31 -17 0
-30 -48 -62 -31 17 0
29 17 -50 0
29 -17 50 0
-29 17 50 0
-29 -17 -50 0
5 40 65 57 36 50 56 0
5 40 65 57 36 -50 -56 0
5 40 65 57 -36 50 -56 0
5 40 65 57 -36 -50 56 0
5 40 65 -57 36 50 -56 0
5 40 65 -57 36 -50 56 0
5 40 65 -57 -36 50 56 0
5 40 65 -57 -36 -50 -56 0
5 40 -65 57 36 50 -56 0
5 40 -65 57 36 -50 56 0
5 40 -65 57 -36 50 56 0
5 40 -65 57 -36 -50 -56 0
5 40 -65 -57 36 50 56 0
5 40 -65 -57 36 -50 -56 0
5 40 -65 -57 -36 50 -56 0
5 40 -65 -57 -36 -50 56 0
5 -40 65 57 36 50 -56 0
5 -40 65 57 36 -50 56 0
5 -40 65 57 -36 50 56 0
5 -40 65 57 -36 -50 -56 0
5 -40 65 -57 36 50 56 0
5 -40 65 -57 36 -50 -56 0
5 -40 65 -57 -36 50 -56 0
5 -40 65 -57 -36 -50 56 0
5 -40 -65 57 36 50 56 0
5 -40 -65 57 36 -50 -56 0
5 -40 -65 57 -36 50 -56 0
5 -40 -65 57 -36 -50 56 0
5 -40 -65 -57 36 50 -56 0
5 -40 -65 -57 36 -50 56 0
5 -40 -65 -57 -36 50 56 0
5 -40 -65 -57 -36 -50 -56 0
-5 40 65 57 36 50 -56 0
-5 40 65 57 36 -50 56 0
-5 40 65 57 -36 50 56 0
-5 40 65 57 -36 -50 -56 0
-5 40 65 -57 36 50 56 0
-5 40 65 -57 36 -50 -56 0
-5 40 65 -57 -36 50 -56 0
-5 40 65 -57 -36 -50 56 0
-5 40 -65 57 36 50 56 0
-5 40 -65 57 36 -50 -56 0
-5 40 -65 57 -36 50 -56 0
-5 40 -65 57 -36 -50 56 0
-5 40 -65 -57 36 50 -56 0
-5 40 -65 -57 36 -50 56 0
-5 40 -65 -57 -36 50 56 0
-5 40 -65 -57 -36 -50 -56 0
-5 -40 65 57 36 50 56 0
-5 -40 65 57 36 -50 -56 0
-5 -40 65 57 -36 50 -56 0
-5 -40 65 57 -36 -50 56 0
-5 -40 65 -57 36 50 -56 0
-5 -40 65 -57 36 -50 56 0
-5 -40 65 -57 -36 50 56 0
-5 -40 65 -57 -36 -50 -56 0
-5 -40 -65 57 36 50 -56 0
-5 -40 -65 57 36 -50 56 0
-5 -40 -65 57 -36 50 56 0
-5 -40 -65 57 -36 -50 -56 0
-5 -40 -65 -57 36 50 56 0
-5 -40 -65 -57 36 -50 -56 0
-5 -40 -65 -57 -36 50 -56 0
-5 -40 -65 -57 -36 -50 56 0
42 75 59 15 10 56 43 0
42 75 59 15 10 -56 -43 0
42 75 59 15 -10 56 -43 0
42 75 59 15 -10 -56 43 0
42 75 59 -15 10 56 -43 0
42 75 59 -15 10 -56 43 0
42 75 59 -15 -10 56 43 0
42 75 59 -15 -10 -56 -43 0
42 75 -59 15 10 56 -43 0
42 75 -59 15 10 -56 43 0
42 75 -59 15 -10 56 43 0
42 75 -59 15 -10 -56 -43 0
42 75 -59 -15 10 56 43 0
42 75 -59 -15 10 -56 -43 0
42 75 -59 -15 -10 56 -43 0
42 75 -59 -15 -10 -56 43 0
42 -75 59 15 10 56 -43 0
42 -75 59 15 10 -56 43 0
42 -75 59 15 -10 56 43 0
42 -75 59 15 -10 -56 -43 0
42 -75 59 -15 10 56 43 0
42 -75 59 -15 10 -56 -43 0
42 -75 59 -15 -10 56 -43 0
42 -75 59 -15 -10 -56 43 0
42 -75 -59 15 10 56 43 0
42 -75 -59 15 10 -56 -43 0
42 -75 -59 15 -10 56 -43 0
42 -75 -59 15 -10 -56 43 0
42 -75 -59 -15 10 56 -43 0
42 -75 -59 -15 10 -56 43 0
42 -75 -59 -15 -10 56 43 0
42 -75 -59 -15 -10 -56 -43 0
-42 75 59 15 10 56 -43 0
-42 75 59 15 10 -56 43 0
-42 75 59 15 -10 56 43 0
-42 75 59 15 -10 -56 -43 0
-42 75 59 -15 10 56 43 0
-42 75 59 -15 10 -56 -43 0
-42 75 59 -15 -10 56 -43 0
-42 75 59 -15 -10 -56 43 0
-42 75 -59 15 10 56 43 0
-42 75 -59 15 10 -56 -43 0
-42 75 -59 15 -10 56 -43 0
-42 75 -59 15 -10 -56 43 0
-42 75 -59 -15 10 56 -43 0
-42 75 -59 -15 10 -56 43 0
-42 75 -59 -15 -10 56 43 0
-42 75 -59 -15 -10 -56 -43 0
-42 -75 59 15 10 56 43 0
-42 -75 59 15 10 -56 -43 0
-42 -75 59 15 -10 56 -43 0
-42 -75 59 15 -10 -56 43 0
-42 -75 59 -15 10 56 -43 0
-42 -75 59 -15 10 -56 43 0
-42 -75 59 -15 -10 56 43 0
-42 -75 59 -15 -10 -56 -43 0
-42 -75 -59 15 10 56 -43 0
-42 -75 -59 15 10 -56 43 0
-42 -75 -59 15 -10 56 43 0
-42 -75 -59 15 -10 -56 -43 0
-42 -75 -59 -15 10 56 43 0
-42 -75 -59 -15 10 -56 -43 0
-42 -75 -59 -15 -10 56 -43 0
-42 -75 -59 -15 -10 -56 43 0
63 61 37 67 69 43 13 0
63 61 37 67 69 -43 -13 0
63 61 37 67 -69 43 -13 0
63 61 37 67 -69 -43 13 0
63 61 37 -67 69 43 -13 0
63 61 37 -67 69 -43 13 0
63 61 37 -67 -69 43 13 0
63 61 37 -67 -69 -43 -13 0
63 61 -37 67 69 43 -13 0
63 61 -37 67 69 -43 13 0
63 61 -37 67 -69 43 13 0
63 61 -37 67 -69 -43 -13 0
63 61 -37 -67 69 43 13 0
63 61 -37 -67 69 -43 -13 0
63 61 -37 -67 -69 43 -13 0
63 61 -37 -67 -69 -43 13 0
63 -61 37 67 69 43 -13 0
63 -61 37 67 69 -43 13 0
63 -61 37 67 -69 43 13 0
63 -61 37 67 -69 -43 -13 0
63 -61 37 -67 69 43 13 0
63 -61 37 -67 69 -43 -13 0
63 -61 37 -67 -69 43 -13 0
63 -61 37 -67 -69 -43 13 0
63 -61 -37 67 69 43 13 0
63 -61 -37 67 69 -43 -13 0
63 -61 -37 67 -69 43 -13 0
63 -61 -37 67 -69 -43 13 0
63 -61 -37 -67 69 43 -13 0
63 -61 -37 -67 69 -43 13 0
63 -61 -37 -67 -69 43 13 0
63 -61 -37 -67 -69 -43 -13 0
-63 61 37 67 69 43 -13 0
-63 61 37 67 69 -43 13 0
-63 61 37 67 -69 43 13 0
-63 61 37 67 -69 -43 -13 0
-63 61 37 -67 69 43 13 0
-63 61 37 -67 69 -43 -13 0
-63 61 37 -67 -69 43 -13 0
-63 61 37 -67 -69 -43 13 0
-63 61 -37 67 69 43 13 0
-63 61 -37 67 69 -43 -13 0
-63 61 -37 67 -69 43 -13 0
-63 61 -37 67 -69 -43 13 0
-63 61 -37 -67 69 43 -13 0
-63 61 -37 -67 69 -43 13 0
-63 61 -37 -67 -69 43 13 0
-63 61 -37 -67 -69 -43 -13 0
-63 -61 37 67 69 43 13 0
-63 -61 37 67 69 -43 -13 0
-63 -61 37 67 -69 43 -13 0
-63 -61 37 67 -69 -43 13 0
-63 -61 37 -67 69 43 -13 0
-63 -61 37 -67 69 -43 13 0
-63 -61 37 -67 -69 43 13 0
-63 -61 37 -67 -69 -43 -13 0
-63 -61 -37 67 69 43 -13 0
-63 -61 -37 67 69 -43 13 0
-63 -61 -37 67 -69 43 13 0
-63 -61 -37 67 -69 -43 -13 0
-63 -61 -37 -67 69 43 13 0
-63 -61 -37 -67 69 -43 -13 0
-63 -61 -37 -67 -69 43 -13 0
-63 -61 -37 -67 -69 -43 13 0
11 6 13 20 0
11 6 -13 -20 0
11 -6 13 -20 0
11 -6 -13 20 0
-11 6 13 -20 0
-11 6 -13 20 0
-11 -6 13 20 0
-11 -6 -13 -20 0
26 3 52 33 20 0
26 3 52 -33 -20 0
26 3 -52 33 -20 0
26 3 -52 -33 20 0
26 -3 52 33 -20 0
26 -3 52 -33 20 0
26 -3 -52 33 20 0
26 -3 -52 -33 -20 0
-26 3 52 33 -20 0
-26 3 52 -33 20 0
-26 3 -52 33 20 0
-26 3 -52 -33 -20 0
-26 -3 52 33 20 0
-26 -3 52 -33 -20 0
-26 -3 -52 33 -20 0
-26 -3 -52 -33 20 0
73 19 28 46 -21 0
73 19 28 -46 21 0
73 19 -28 46 21 0
73 19 -28 -46 -21 0
73 -19 28 46 21 0
73 -19 28 -46 -21 0
73 -19 -28 46 -21 0
73 -19 -28 -46 21 0
-73 19 28 46 21 0
-73 19 28 -46 -21 0
-73 19 -28 46 -21 0
-73 19 -28 -46 21 0
-73 -19 28 46 -21 0
-73 -19 28 -46 21 0
-73 -19 -28 46 21 0
-73 -19 -28 -46 -21 0
11 75 21 27 0
11 75 -21 -27 0
11 -75 21 -27 0
11 -75 -21 27 0
-11 75 21 -27 0
-11 75 -21 27 0
-11 -75 21 27 0
-11 -75 -21 -27 0
77 70 40 59 61 27 22 0
77 70 40 59 61 -27 -22 0
77 70 40 59 -61 27 -22 0
77 70 40 59 -61 -27 22 0
77 70 40 -59 61 27 -22 0
77 70 40 -59 61 -27 22 0
77 70 40 -59 -61 27 22 0
77 70 40 -59 -61 -27 -22 0
77 70 -40 59 61 27 -22 0
77 70 -40 59 61 -27 22 0
77 70 -40 59 -61 27 22 0
77 70 -40 59 -61 -27 -22 0
77 70 -40 -59 61 27 22 0
77 70 -40 -59 61 -27 -22 0
77 70 -40 -59 -61 27 -22 0
77 70 -40 -59 -61 -27 22 0
77 -70 40 59 61 27 -22 0
77 -70 40 59 61 -27 22 0
77 -70 40 59 -61 27 22 0
77 -70 40 59 -61 -27 -22 0
77 -70 40 -59 61 27 22 0
77 -70 40 -59 61 -27 -22 0
77 -70 40 -59 -61 27 -22 0
77 -70 40 -59 -61 -27 22 0
77 -70 -40 59 61 27 22 0
77 -70 -40 59 61 -27 -22 0
77 -70 -40 59 -61 27 -22 0
77 -70 -40 59 -61 -27 22 0
77 -70 -40 -59 61 27 -22 0
77 -70 -40 -59 61 -27 22 0
77 -70 -40 -59 -61 27 22 0
77 -70 -40 -59 -61 -27 -22 0
-77 70 40 59 61 27 -22 0
-77 70 40 59 61 -27 22 0
-77 70 40 59 -61 27 22 0
-77 70 40 59 -61 -27 -22 0
-77 70 40 -59 61 27 22 0
-77 70 40 -59 61 -27 -22 0
-77 70 40 -59 -61 27 -22 0
-77 70 40 -59 -61 -27 22 0
-77 70 -40 59 61 27 22 0
-77 70 -40 59 61 -27 -22 0
-77 70 -40 59 -61 27 -22 0
-77 70 -40 59 -61 -27 22 0
-77 70 -40 -59 61 27 -22 0
-77 70 -40 -59 61 -27 22 0
-77 70 -40 -59 -61 27 22 0
-77 70 -40 -59 -61 -27 -22 0
-77 -70 40 59 61 27 22 0
-77 -70 40 59 61 -27 -22 0
-77 -70 40 59 -61 27 -22 0
-77 -70 40 59 -61 -27 22 0
-77 -70 40 -59 61 27 -22 0
-77 -70 40 -59 61 -27 22 0
-77 -70 40 -59 -61 27 22 0
-77 -70 40 -59 -61 -27 -22 0
-77 -70 -40 59 61 27 -22 0
-77 -70 -40 59 61 -27 22 0
-77 -70 -40 59 -61 27 22 0
-77 -70 -40 59 -61 -27 -22 0
-77 -70 -40 -59 61 27 22 0
-77 -70 -40 -59 61 -27 -22 0
-77 -70 -40 -59 -61 27 -22 0
-77 -70 -40 -59 -61 -27 22 0
30 47 15 22 -38 0
30 47 15 -22 38 0
30 47 -15 22 38 0
30 47 -15 -22 -38 0
30 -47 15 22 38 0
30 -47 15 -22 -38 0
30 -47 -15 22 -38 0
30 -47 -15 -22 38 0
-30 47 15 22 38 0
-30 47 15 -22 -38 0
-30 47 -15 22 -38 0
-30 47 -15 -22 38 0
-30 -47 15 22 -38 0
-30 -47 15 -22 38 0
-30 -47 -15 22 38 0
-30 -47 -15 -22 -38 0
72 38 -66 0
72 -38 66 0
-72 38 66 0
-72 -38 -66 0
24 25 2 36 66 -55 0
24 25 2 36 -66 55 0
24 25 2 -36 66 55 0
24 25 2 -36 -66 -55 0
24 25 -2 36 66 55 0
24 25 -2 36 -66 -55 0
24 25 -2 -36 66 -55 0
24 25 -2 -36 -66 55 0
24 -25 2 36 66 55 0
24 -25 2 36 -66 -55 0
24 -25 2 -36 66 -55 0
24 -25 2 -36 -66 55 0
24 -25 -2 36 66 -55 0
24 -25 -2 36 -66 55 0
24 -25 -2 -36 66 55 0
24 -25 -2 -36 -66 -55 0
-24 25 2 36 66 55 0
-24 25 2 36 -66 -55 0
-24 25 2 -36 66 -55 0
-24 25 2 -36 -66 55 0
-24 25 -2 36 66 -55 0
-24 25 -2 36 -66 55 0
-24 25 -2 -36 66 55 0
-24 25 -2 -36 -66 -55 0
-24 -25 2 36 66 -55 0
-24 -25 2 36 -66 55 0
-24 -25 2 -36 66 55 0
-24 -25 2 -36 -66 -55 0
-24 -25 -2 36 66 55 0
-24 -25 -2 36 -66 -55 0
-24 -25 -2 -36 66 -55 0
-24 -25 -2 -36 -66 55 0
5 68 55 34 0
5 68 -55 -34 0
5 -68 55 -34 0
5 -68 -55 34 0
-5 68 55 -34 0
-5 68 -55 34 0
-5 -68 55 34 0
-5 -68 -55 -34 0
76 71 37 34 23 0
76 71 37 -34 -23 0
76 71 -37 34 -23 0
76 71 -37 -34 23 0
76 -71 37 34 -23 0
76 -71 37 -34 23 0
76 -71 -37 34 23 0
76 -71 -37 -34 -23 0
-76 71 37 34 -23 0
-76 71 37 -34 23 0
-76 71 -37 34 23 0
-76 71 -37 -34 -23 0
-76 -71 37 34 23 0
-76 -71 37 -34 -23 0
-76 -71 -37 34 -23 0
-76 -71 -37 -34 23 0
42 52 23 45 0
42 52 -23 -45 0
42 -52 23 -45 0
42 -52 -23 45 0
-42 52 23 -45 0
-42 52 -23 45 0
-42 -52 23 45 0
-42 -52 -23 -45 0
26 35 10 6 45 49 0
26 35 10 6 -45 -49 0
26 35 10 -6 45 -49 0
26 35 10 -6 -45 49 0
26 35 -10 6 45 -49 0
26 35 -10 6 -45 49 0
26 35 -10 -6 45 49 0
26 35 -10 -6 -45 -49 0
26 -35 10 6 45 -49 0
26 -35 10 6 -45 49 0
26 -35 10 -6 45 49 0
26 -35 10 -6 -45 -49 0
26 -35 -10 6 45 49 0
26 -35 -10 6 -45 -49 0
26 -35 -10 -6 45 -49 0
26 -35 -10 -6 -45 49 0
-26 35 10 6 45 -49 0
-26 35 10 6 -45 49 0
-26 35 10 -6 45 49 0
-26 35 10 -6 -45 -49 0
-26 35 -10 6 45 49 0
-26 35 -10 6 -45 -49 0
-26 35 -10 -6 45 -49 0
-26 35 -10 -6 -45 49 0
-26 -35 10 6 45 49 0
-26 -35 10 6 -45 -49 0
-26 -35 10 -6 45 -49 0
-26 -35 10 -6 -45 49 0
-26 -35 -10 6 45 -49 0
-26 -35 -10 6 -45 49 0
-26 -35 -10 -6 45 49 0
-26 -35 -10 -6 -45 -49 0
63 65 33 49 -41 0
63 65 33 -49 41 0
63 65 -33 49 41 0
63 65 -33 -49 -41 0
63 -65 33 49 41 0
63 -65 33 -49 -41 0
63 -65 -33 49 -41 0
63 -65 -33 -49 41 0
-63 65 33 49 41 0
-63 65 33 -49 -41 0
-63 65 -33 49 -41 0
-63 65 -33 -49 41 0
-63 -65 33 49 -41 0
-63 -65 33 -49 41 0
-63 -65 -33 49 41 0
-63 -65 -33 -49 -41 0
44 41 -53 0
44 -41 53 0
-44 41 53 0
-44 -41 -53 0
39 8 67 53 -12 0
39 8 67 -53 12 0
39 8 -67 53 12 0
39 8 -67 -53 -12 0
39 -8 67 53 12 0
39 -8 67 -53 -12 0
39 -8 -67 53 -12 0
39 -8 -67 -53 12 0
-39 8 67 53 12 0
-39 8 67 -53 -12 0
-39 8 -67 53 -12 0
-39 8 -67 -53 12 0
-39 -8 67 53 -12 0
-39 -8 67 -53 12 0
-39 -8 -67 53 12 0
-39 -8 -67 -53 -12 0
60 9 57 69 3 12 1 0
60 9 57 69 3 -12 -1 0
60 9 57 69 -3 12 -1 0
60 9 57 69 -3 -12 1 0
60 9 57 -69 3 12 -1 0
60 9 57 -69 3 -12 1 0
60 9 57 -69 -3 12 1 0
60 9 57 -69 -3 -12 -1 0
60 9 -57 69 3 12 -1 0
60 9 -57 69 3 -12 1 0
60 9 -57 69 -3 12 1 0
60 9 -57 69 -3 -12 -1 0
60 9 -57 -69 3 12 1 0
60 9 -57 -69 3 -12 -1 0
60 9 -57 -69 -3 12 -1 0
60 9 -57 -69 -3 -12 1 0
60 -9 57 69 3 12 -1 0
60 -9 57 69 3 -12 1 0
60 -9 57 69 -3 12 1 0
60 -9 57 69 -3 -12 -1 0
60 -9 57 -69 3 12 1 0
60 -9 57 -69 3 -12 -1 0
60 -9 57 -69 -3 12 -1 0
60 -9 57 -69 -3 -12 1 0
60 -9 -57 69 3 12 1 0
60 -9 -57 69 3 -12 -1 0
60 -9 -57 69 -3 12 -1 0
60 -9 -57 69 -3 -12 1 0
60 -9 -57 -69 3 12 -1 0
60 -9 -57 -69 3 -12 1 0
60 -9 -57 -69 -3 12 1 0
60 -9 -57 -69 -3 -12 -1 0
-60 9 57 69 3 12 -1 0
-60 9 57 69 3 -12 1 0
-60 9 57 69 -3 12 1 0
-60 9 57 69 -3 -12 -1 0
-60 9 57 -69 3 12 1 0
-60 9 57 -69 3 -12 -1 0
-60 9 57 -69 -3 12 -1 0
-60 9 57 -69 -3 -12 1 0
-60 9 -57 69 3 12 1 0
-60 9 -57 69 3 -12 -1 0
-60 9 -57 69 -3 12 -1 0
-60 9 -57 69 -3 -12 1 0
-60 9 -57 -69 3 12 -1 0
-60 9 -57 -69 3 -12 1 0
-60 9 -57 -69 -3 12 1 0
-60 9 -57 -69 -3 -12 -1 0
-60 -9 57 69 3 12 1 0
-60 -9 57 69 3 -12 -1 0
-60 -9 57 69 -3 12 -1 0
-60 -9 57 69 -3 -12 1 0
-60 -9 57 -69 3 12 -1 0
-60 -9 57 -69 3 -12 1 0
-60 -9 57 -69 -3 12 1 0
-60 -9 57 -69 -3 -12 -1 0
-60 -9 -57 69 3 12 -1 0
-60 -9 -57 69 3 -12 1 0
-60 -9 -57 69 -3 12 1 0
-60 -9 -57 69 -3 -12 -1 0
-60 -9 -57 -69 3 12 1 0
-60 -9 -57 -69 3 -12 -1 0
-60 -9 -57 -69 -3 12 -1 0
-60 -9 -57 -69 -3 -12 1 0
4 62 1 51 0
4 62 -1 -51 0
4 -62 1 -51 0
4 -62 -1 51 0
-4 62 1 -51 0
-4 62 -1 51 0
-4 -62 1 51 0
-4 -62 -1 -51 0
29 18 48 -51 0
29 18 -48 51 0
29 -18 48 51 0
29 -18 -48 -51 0
-29 18 48 51 0
-29 18 -48 -51 0
-29 -18 48 -51 0
-29 -18 -48 51 0
